n_machines = 5;
n_resources = 6;
n_jobs = 28;
horizon = 1302;
LB = 419;
n_jobs_per_resource = [1, 6, 2, 8, 6, 5];
duration = [60, 39, 30, 69, 80, 1, 15, 6, 20, 87, 25, 18, 20, 27, 84, 72, 86, 47, 62, 69, 50, 38, 64, 58, 84, 7, 1, 83]